p edge 118 2051
e 1 4
e 1 7
e 1 9
e 1 15
e 1 16
e 1 21
e 1 25
e 1 35
e 1 41
e 1 43
e 1 45
e 1 51
e 1 58
e 1 59
e 1 62
e 1 65
e 1 66
e 1 67
e 1 69
e 1 77
e 1 82
e 1 85
e 1 86
e 1 88
e 1 90
e 1 93
e 1 98
e 1 99
e 1 101
e 1 102
e 1 103
e 1 111
e 1 112
e 1 113
e 1 115
e 2 3
e 2 4
e 2 6
e 2 10
e 2 13
e 2 14
e 2 15
e 2 16
e 2 17
e 2 20
e 2 25
e 2 29
e 2 30
e 2 33
e 2 34
e 2 38
e 2 41
e 2 46
e 2 48
e 2 53
e 2 63
e 2 70
e 2 73
e 2 77
e 2 78
e 2 84
e 2 85
e 2 87
e 2 90
e 2 92
e 2 95
e 2 96
e 2 97
e 2 99
e 2 101
e 2 102
e 2 104
e 2 107
e 2 108
e 2 109
e 2 110
e 2 112
e 3 9
e 3 11
e 3 19
e 3 21
e 3 26
e 3 30
e 3 31
e 3 32
e 3 33
e 3 35
e 3 37
e 3 39
e 3 40
e 3 45
e 3 48
e 3 54
e 3 55
e 3 56
e 3 57
e 3 60
e 3 62
e 3 64
e 3 66
e 3 67
e 3 74
e 3 79
e 3 82
e 3 85
e 3 88
e 3 89
e 3 90
e 3 95
e 3 105
e 3 109
e 3 111
e 3 114
e 4 8
e 4 12
e 4 13
e 4 18
e 4 21
e 4 24
e 4 31
e 4 32
e 4 35
e 4 37
e 4 40
e 4 43
e 4 48
e 4 58
e 4 64
e 4 65
e 4 66
e 4 71
e 4 76
e 4 78
e 4 83
e 4 84
e 4 87
e 4 89
e 4 91
e 4 103
e 4 105
e 4 107
e 4 109
e 4 110
e 4 111
e 5 6
e 5 9
e 5 11
e 5 13
e 5 14
e 5 15
e 5 17
e 5 18
e 5 20
e 5 22
e 5 23
e 5 24
e 5 26
e 5 29
e 5 31
e 5 32
e 5 35
e 5 36
e 5 38
e 5 40
e 5 43
e 5 44
e 5 45
e 5 46
e 5 50
e 5 53
e 5 59
e 5 61
e 5 62
e 5 63
e 5 69
e 5 70
e 5 71
e 5 78
e 5 79
e 5 82
e 5 84
e 5 86
e 5 91
e 5 94
e 5 98
e 5 100
e 5 102
e 5 107
e 5 108
e 5 112
e 5 116
e 6 8
e 6 10
e 6 11
e 6 17
e 6 21
e 6 25
e 6 27
e 6 29
e 6 36
e 6 44
e 6 56
e 6 57
e 6 58
e 6 63
e 6 64
e 6 67
e 6 72
e 6 76
e 6 78
e 6 90
e 6 94
e 6 96
e 6 99
e 6 106
e 6 113
e 7 8
e 7 14
e 7 20
e 7 25
e 7 26
e 7 35
e 7 36
e 7 38
e 7 40
e 7 42
e 7 47
e 7 50
e 7 63
e 7 64
e 7 65
e 7 66
e 7 67
e 7 71
e 7 72
e 7 81
e 7 87
e 7 89
e 7 90
e 7 100
e 7 108
e 7 110
e 7 112
e 7 114
e 7 117
e 8 10
e 8 18
e 8 20
e 8 21
e 8 32
e 8 38
e 8 40
e 8 42
e 8 45
e 8 48
e 8 55
e 8 59
e 8 60
e 8 62
e 8 67
e 8 69
e 8 70
e 8 71
e 8 76
e 8 81
e 8 85
e 8 88
e 8 93
e 8 96
e 8 98
e 8 100
e 8 108
e 8 112
e 9 11
e 9 19
e 9 20
e 9 21
e 9 23
e 9 25
e 9 26
e 9 28
e 9 30
e 9 32
e 9 33
e 9 34
e 9 41
e 9 45
e 9 51
e 9 53
e 9 54
e 9 56
e 9 61
e 9 62
e 9 66
e 9 75
e 9 77
e 9 78
e 9 79
e 9 82
e 9 83
e 9 86
e 9 89
e 9 91
e 9 95
e 9 99
e 9 101
e 9 107
e 9 108
e 9 109
e 9 111
e 9 115
e 9 117
e 10 11
e 10 13
e 10 15
e 10 18
e 10 21
e 10 23
e 10 24
e 10 25
e 10 27
e 10 30
e 10 32
e 10 33
e 10 36
e 10 37
e 10 41
e 10 42
e 10 46
e 10 50
e 10 51
e 10 54
e 10 73
e 10 76
e 10 83
e 10 84
e 10 90
e 10 92
e 10 93
e 10 98
e 10 101
e 10 112
e 10 113
e 10 116
e 10 117
e 11 14
e 11 19
e 11 24
e 11 25
e 11 28
e 11 35
e 11 36
e 11 51
e 11 57
e 11 59
e 11 69
e 11 71
e 11 73
e 11 74
e 11 81
e 11 84
e 11 88
e 11 93
e 11 97
e 11 99
e 11 103
e 11 105
e 11 110
e 11 111
e 11 114
e 11 115
e 11 117
e 12 13
e 12 20
e 12 22
e 12 24
e 12 27
e 12 30
e 12 32
e 12 33
e 12 35
e 12 39
e 12 40
e 12 48
e 12 51
e 12 59
e 12 62
e 12 64
e 12 67
e 12 68
e 12 70
e 12 81
e 12 97
e 12 99
e 12 100
e 12 106
e 12 108
e 12 109
e 12 118
e 13 22
e 13 26
e 13 33
e 13 36
e 13 41
e 13 42
e 13 43
e 13 49
e 13 54
e 13 57
e 13 58
e 13 60
e 13 61
e 13 67
e 13 68
e 13 69
e 13 76
e 13 78
e 13 85
e 13 87
e 13 89
e 13 96
e 13 98
e 13 100
e 13 102
e 13 104
e 13 105
e 13 107
e 13 117
e 14 18
e 14 21
e 14 23
e 14 24
e 14 25
e 14 26
e 14 32
e 14 37
e 14 38
e 14 39
e 14 40
e 14 41
e 14 49
e 14 50
e 14 52
e 14 67
e 14 68
e 14 69
e 14 70
e 14 81
e 14 89
e 14 90
e 14 95
e 14 103
e 14 110
e 14 113
e 14 115
e 14 116
e 15 20
e 15 22
e 15 24
e 15 25
e 15 26
e 15 29
e 15 30
e 15 37
e 15 40
e 15 47
e 15 48
e 15 51
e 15 59
e 15 60
e 15 61
e 15 70
e 15 74
e 15 77
e 15 81
e 15 88
e 15 90
e 15 92
e 15 93
e 15 94
e 15 100
e 15 104
e 15 105
e 15 106
e 15 109
e 15 113
e 15 116
e 15 117
e 16 17
e 16 18
e 16 37
e 16 47
e 16 52
e 16 54
e 16 57
e 16 59
e 16 62
e 16 66
e 16 71
e 16 72
e 16 77
e 16 78
e 16 81
e 16 84
e 16 85
e 16 87
e 16 94
e 16 95
e 16 96
e 16 102
e 16 103
e 16 108
e 16 110
e 16 114
e 16 115
e 16 118
e 17 20
e 17 27
e 17 30
e 17 33
e 17 34
e 17 35
e 17 36
e 17 38
e 17 41
e 17 44
e 17 45
e 17 51
e 17 58
e 17 59
e 17 60
e 17 62
e 17 64
e 17 66
e 17 67
e 17 78
e 17 82
e 17 85
e 17 86
e 17 97
e 17 109
e 17 111
e 17 113
e 17 114
e 17 115
e 17 116
e 18 21
e 18 26
e 18 28
e 18 33
e 18 34
e 18 35
e 18 36
e 18 39
e 18 41
e 18 43
e 18 45
e 18 46
e 18 47
e 18 48
e 18 49
e 18 55
e 18 61
e 18 67
e 18 74
e 18 83
e 18 86
e 18 87
e 18 90
e 18 94
e 18 99
e 18 100
e 18 101
e 18 102
e 18 105
e 18 106
e 18 109
e 18 110
e 18 111
e 18 112
e 18 118
e 19 22
e 19 24
e 19 25
e 19 33
e 19 37
e 19 41
e 19 50
e 19 51
e 19 52
e 19 53
e 19 64
e 19 71
e 19 72
e 19 74
e 19 81
e 19 83
e 19 87
e 19 89
e 19 92
e 19 94
e 19 95
e 19 97
e 19 99
e 19 101
e 19 102
e 19 104
e 19 105
e 19 106
e 19 107
e 19 116
e 20 22
e 20 49
e 20 51
e 20 54
e 20 62
e 20 63
e 20 64
e 20 73
e 20 77
e 20 84
e 20 86
e 20 87
e 20 89
e 20 90
e 20 91
e 20 109
e 20 111
e 20 114
e 20 116
e 20 117
e 21 24
e 21 29
e 21 31
e 21 34
e 21 35
e 21 36
e 21 50
e 21 51
e 21 55
e 21 56
e 21 59
e 21 60
e 21 61
e 21 62
e 21 65
e 21 67
e 21 73
e 21 76
e 21 79
e 21 81
e 21 83
e 21 87
e 21 91
e 21 92
e 21 96
e 21 103
e 21 108
e 21 112
e 21 113
e 21 115
e 22 23
e 22 33
e 22 35
e 22 36
e 22 45
e 22 47
e 22 48
e 22 51
e 22 52
e 22 53
e 22 57
e 22 61
e 22 64
e 22 67
e 22 78
e 22 81
e 22 82
e 22 85
e 22 92
e 22 94
e 22 95
e 22 96
e 22 98
e 22 100
e 22 104
e 22 106
e 22 110
e 22 111
e 22 114
e 22 118
e 23 25
e 23 30
e 23 32
e 23 40
e 23 51
e 23 52
e 23 61
e 23 62
e 23 71
e 23 75
e 23 77
e 23 88
e 23 92
e 23 98
e 23 99
e 23 103
e 23 104
e 23 115
e 23 118
e 24 29
e 24 31
e 24 32
e 24 34
e 24 37
e 24 41
e 24 42
e 24 43
e 24 45
e 24 51
e 24 56
e 24 57
e 24 59
e 24 60
e 24 66
e 24 68
e 24 69
e 24 73
e 24 75
e 24 83
e 24 84
e 24 89
e 24 90
e 24 92
e 24 94
e 24 95
e 24 97
e 24 101
e 24 102
e 24 105
e 24 112
e 24 116
e 25 29
e 25 30
e 25 39
e 25 43
e 25 47
e 25 51
e 25 52
e 25 53
e 25 58
e 25 63
e 25 64
e 25 65
e 25 66
e 25 70
e 25 72
e 25 74
e 25 75
e 25 77
e 25 82
e 25 83
e 25 85
e 25 86
e 25 88
e 25 89
e 25 90
e 25 93
e 25 96
e 25 98
e 25 106
e 25 109
e 25 110
e 25 112
e 25 117
e 26 37
e 26 39
e 26 41
e 26 44
e 26 46
e 26 47
e 26 50
e 26 51
e 26 53
e 26 55
e 26 58
e 26 64
e 26 69
e 26 70
e 26 72
e 26 75
e 26 77
e 26 78
e 26 83
e 26 87
e 26 88
e 26 95
e 26 101
e 26 103
e 26 104
e 26 105
e 26 107
e 26 108
e 26 109
e 26 114
e 26 115
e 27 28
e 27 34
e 27 40
e 27 48
e 27 53
e 27 55
e 27 57
e 27 58
e 27 62
e 27 63
e 27 78
e 27 81
e 27 82
e 27 86
e 27 89
e 27 90
e 27 92
e 27 106
e 27 108
e 27 109
e 27 110
e 27 111
e 27 114
e 27 118
e 28 31
e 28 37
e 28 38
e 28 39
e 28 41
e 28 45
e 28 46
e 28 50
e 28 54
e 28 59
e 28 62
e 28 64
e 28 65
e 28 66
e 28 67
e 28 71
e 28 74
e 28 77
e 28 81
e 28 84
e 28 86
e 28 90
e 28 94
e 28 99
e 28 105
e 28 107
e 28 112
e 28 114
e 28 115
e 29 34
e 29 38
e 29 45
e 29 47
e 29 51
e 29 53
e 29 60
e 29 61
e 29 75
e 29 76
e 29 80
e 29 81
e 29 82
e 29 87
e 29 90
e 29 91
e 29 94
e 29 105
e 29 118
e 30 34
e 30 37
e 30 40
e 30 45
e 30 47
e 30 49
e 30 54
e 30 55
e 30 58
e 30 60
e 30 62
e 30 68
e 30 69
e 30 70
e 30 72
e 30 77
e 30 83
e 30 85
e 30 88
e 30 90
e 30 92
e 30 94
e 30 96
e 30 99
e 30 100
e 30 106
e 30 107
e 30 115
e 31 34
e 31 37
e 31 39
e 31 40
e 31 47
e 31 51
e 31 52
e 31 57
e 31 59
e 31 64
e 31 65
e 31 67
e 31 70
e 31 71
e 31 74
e 31 83
e 31 86
e 31 87
e 31 88
e 31 93
e 31 97
e 31 100
e 31 103
e 31 104
e 31 106
e 31 113
e 31 116
e 31 117
e 31 118
e 32 38
e 32 49
e 32 52
e 32 58
e 32 61
e 32 67
e 32 68
e 32 69
e 32 71
e 32 72
e 32 74
e 32 77
e 32 79
e 32 83
e 32 86
e 32 92
e 32 93
e 32 97
e 32 103
e 32 107
e 32 108
e 32 110
e 32 111
e 32 112
e 32 113
e 32 115
e 33 39
e 33 48
e 33 50
e 33 53
e 33 54
e 33 60
e 33 63
e 33 64
e 33 66
e 33 67
e 33 70
e 33 71
e 33 75
e 33 77
e 33 79
e 33 82
e 33 83
e 33 84
e 33 86
e 33 95
e 33 97
e 33 101
e 33 113
e 33 114
e 33 116
e 33 117
e 34 38
e 34 41
e 34 44
e 34 50
e 34 52
e 34 54
e 34 58
e 34 62
e 34 64
e 34 65
e 34 67
e 34 74
e 34 76
e 34 77
e 34 79
e 34 80
e 34 85
e 34 86
e 34 87
e 34 89
e 34 92
e 34 93
e 34 95
e 34 100
e 34 101
e 34 105
e 34 109
e 34 110
e 34 114
e 34 118
e 35 36
e 35 37
e 35 41
e 35 44
e 35 45
e 35 47
e 35 51
e 35 59
e 35 60
e 35 67
e 35 70
e 35 71
e 35 74
e 35 78
e 35 87
e 35 96
e 35 97
e 35 100
e 35 103
e 35 108
e 35 112
e 35 116
e 35 118
e 36 41
e 36 45
e 36 48
e 36 55
e 36 57
e 36 59
e 36 60
e 36 63
e 36 66
e 36 72
e 36 82
e 36 88
e 36 89
e 36 94
e 36 98
e 36 99
e 36 100
e 36 103
e 36 112
e 36 113
e 36 114
e 36 115
e 37 38
e 37 46
e 37 48
e 37 56
e 37 57
e 37 62
e 37 63
e 37 68
e 37 69
e 37 70
e 37 74
e 37 76
e 37 77
e 37 81
e 37 84
e 37 93
e 37 102
e 37 104
e 37 107
e 37 109
e 37 113
e 37 115
e 38 40
e 38 42
e 38 43
e 38 46
e 38 50
e 38 52
e 38 53
e 38 54
e 38 57
e 38 60
e 38 61
e 38 62
e 38 63
e 38 64
e 38 65
e 38 66
e 38 76
e 38 78
e 38 81
e 38 82
e 38 85
e 38 87
e 38 105
e 38 107
e 38 108
e 38 109
e 38 112
e 39 40
e 39 51
e 39 53
e 39 55
e 39 58
e 39 62
e 39 64
e 39 66
e 39 74
e 39 79
e 39 82
e 39 85
e 39 86
e 39 89
e 39 96
e 39 100
e 39 108
e 39 111
e 39 112
e 39 113
e 39 115
e 39 118
e 40 43
e 40 45
e 40 46
e 40 53
e 40 60
e 40 61
e 40 62
e 40 66
e 40 70
e 40 76
e 40 80
e 40 83
e 40 85
e 40 86
e 40 89
e 40 91
e 40 96
e 40 98
e 40 103
e 40 105
e 40 106
e 40 118
e 41 44
e 41 51
e 41 52
e 41 56
e 41 60
e 41 61
e 41 69
e 41 73
e 41 78
e 41 79
e 41 80
e 41 86
e 41 90
e 41 91
e 41 99
e 41 101
e 41 108
e 41 110
e 41 114
e 41 118
e 42 45
e 42 47
e 42 48
e 42 49
e 42 54
e 42 57
e 42 62
e 42 64
e 42 69
e 42 77
e 42 78
e 42 83
e 42 84
e 42 87
e 42 92
e 42 95
e 42 99
e 42 103
e 42 104
e 42 110
e 42 111
e 42 118
e 43 46
e 43 49
e 43 52
e 43 53
e 43 59
e 43 64
e 43 65
e 43 67
e 43 69
e 43 71
e 43 79
e 43 85
e 43 93
e 43 95
e 43 103
e 43 107
e 43 108
e 43 111
e 44 45
e 44 48
e 44 55
e 44 56
e 44 58
e 44 59
e 44 61
e 44 62
e 44 65
e 44 66
e 44 71
e 44 72
e 44 74
e 44 75
e 44 76
e 44 81
e 44 84
e 44 85
e 44 86
e 44 87
e 44 88
e 44 90
e 44 92
e 44 93
e 44 96
e 44 97
e 44 98
e 44 111
e 44 113
e 44 116
e 45 46
e 45 54
e 45 56
e 45 60
e 45 73
e 45 75
e 45 77
e 45 80
e 45 95
e 45 99
e 45 102
e 45 106
e 45 110
e 45 112
e 45 116
e 46 49
e 46 52
e 46 57
e 46 63
e 46 65
e 46 68
e 46 73
e 46 74
e 46 84
e 46 90
e 46 96
e 46 98
e 46 100
e 46 116
e 47 50
e 47 55
e 47 58
e 47 62
e 47 66
e 47 68
e 47 71
e 47 73
e 47 78
e 47 82
e 47 84
e 47 85
e 47 87
e 47 89
e 47 92
e 47 93
e 47 94
e 47 95
e 47 100
e 47 111
e 47 114
e 47 118
e 48 49
e 48 53
e 48 54
e 48 59
e 48 62
e 48 63
e 48 64
e 48 67
e 48 70
e 48 81
e 48 82
e 48 85
e 48 91
e 48 97
e 48 101
e 48 104
e 48 109
e 48 111
e 48 114
e 48 116
e 49 58
e 49 63
e 49 64
e 49 66
e 49 70
e 49 83
e 49 86
e 49 91
e 49 95
e 49 98
e 49 100
e 49 102
e 49 104
e 49 107
e 49 108
e 49 112
e 49 114
e 49 115
e 49 117
e 50 53
e 50 54
e 50 55
e 50 57
e 50 61
e 50 62
e 50 63
e 50 65
e 50 71
e 50 72
e 50 75
e 50 77
e 50 80
e 50 82
e 50 86
e 50 87
e 50 89
e 50 92
e 50 94
e 50 95
e 50 101
e 50 103
e 50 105
e 50 107
e 50 115
e 50 117
e 50 118
e 51 52
e 51 55
e 51 60
e 51 65
e 51 66
e 51 74
e 51 75
e 51 80
e 51 81
e 51 87
e 51 91
e 51 93
e 51 97
e 51 102
e 51 104
e 51 105
e 51 107
e 51 109
e 51 113
e 51 116
e 51 118
e 52 56
e 52 63
e 52 64
e 52 65
e 52 73
e 52 76
e 52 78
e 52 79
e 52 81
e 52 86
e 52 87
e 52 89
e 52 92
e 52 100
e 52 104
e 52 107
e 52 108
e 52 111
e 52 115
e 52 116
e 53 54
e 53 57
e 53 58
e 53 63
e 53 66
e 53 67
e 53 68
e 53 69
e 53 71
e 53 72
e 53 80
e 53 95
e 53 100
e 53 107
e 53 108
e 53 111
e 53 115
e 54 58
e 54 63
e 54 64
e 54 76
e 54 79
e 54 82
e 54 92
e 54 97
e 54 98
e 54 100
e 54 101
e 54 103
e 54 105
e 54 108
e 54 109
e 54 110
e 54 111
e 54 112
e 54 116
e 55 56
e 55 57
e 55 58
e 55 61
e 55 65
e 55 69
e 55 74
e 55 75
e 55 80
e 55 84
e 55 86
e 55 88
e 55 91
e 55 94
e 55 95
e 55 97
e 55 98
e 55 103
e 55 105
e 55 109
e 55 114
e 55 115
e 55 118
e 56 61
e 56 65
e 56 69
e 56 78
e 56 79
e 56 81
e 56 85
e 56 93
e 56 96
e 56 97
e 56 98
e 56 102
e 56 105
e 56 107
e 56 110
e 56 111
e 56 116
e 57 60
e 57 61
e 57 77
e 57 79
e 57 80
e 57 81
e 57 82
e 57 87
e 57 91
e 57 92
e 57 93
e 57 94
e 57 97
e 57 99
e 57 101
e 57 104
e 57 107
e 57 109
e 57 110
e 57 111
e 57 118
e 58 62
e 58 67
e 58 71
e 58 73
e 58 74
e 58 78
e 58 80
e 58 83
e 58 89
e 58 93
e 58 98
e 58 102
e 58 104
e 58 108
e 58 110
e 58 114
e 58 115
e 58 118
e 59 63
e 59 77
e 59 82
e 59 86
e 59 88
e 59 91
e 59 98
e 59 99
e 59 105
e 59 107
e 59 108
e 59 117
e 60 61
e 60 62
e 60 65
e 60 67
e 60 69
e 60 87
e 60 88
e 60 91
e 60 92
e 60 93
e 60 95
e 60 97
e 60 100
e 60 102
e 60 104
e 60 107
e 60 109
e 60 113
e 60 115
e 61 62
e 61 64
e 61 66
e 61 67
e 61 72
e 61 78
e 61 82
e 61 85
e 61 94
e 61 99
e 61 100
e 61 101
e 61 104
e 61 109
e 61 114
e 61 117
e 62 63
e 62 67
e 62 68
e 62 70
e 62 77
e 62 78
e 62 81
e 62 82
e 62 83
e 62 84
e 62 87
e 62 88
e 62 90
e 62 93
e 62 95
e 62 97
e 62 98
e 62 102
e 62 108
e 62 110
e 62 112
e 62 115
e 62 116
e 63 64
e 63 69
e 63 70
e 63 71
e 63 78
e 63 79
e 63 82
e 63 84
e 63 85
e 63 91
e 63 94
e 63 97
e 63 99
e 63 101
e 63 116
e 64 68
e 64 75
e 64 76
e 64 77
e 64 84
e 64 89
e 64 91
e 64 92
e 64 95
e 64 96
e 64 99
e 64 101
e 64 108
e 64 109
e 64 110
e 64 113
e 65 67
e 65 68
e 65 74
e 65 82
e 65 83
e 65 87
e 65 91
e 65 92
e 65 100
e 65 101
e 65 106
e 65 109
e 66 67
e 66 70
e 66 75
e 66 79
e 66 82
e 66 86
e 66 88
e 66 92
e 66 93
e 66 95
e 66 108
e 66 116
e 66 117
e 66 118
e 67 68
e 67 70
e 67 71
e 67 73
e 67 77
e 67 80
e 67 81
e 67 83
e 67 93
e 67 96
e 67 97
e 67 99
e 67 101
e 67 104
e 67 108
e 67 109
e 67 111
e 67 117
e 68 69
e 68 74
e 68 76
e 68 78
e 68 83
e 68 85
e 68 87
e 68 89
e 68 91
e 68 95
e 68 99
e 68 101
e 68 103
e 68 111
e 68 112
e 68 117
e 69 72
e 69 80
e 69 88
e 69 91
e 69 92
e 69 100
e 69 101
e 69 102
e 69 104
e 69 110
e 70 71
e 70 73
e 70 74
e 70 84
e 70 88
e 70 99
e 70 102
e 70 108
e 70 111
e 70 117
e 71 73
e 71 74
e 71 87
e 71 92
e 71 93
e 71 97
e 71 99
e 71 106
e 71 107
e 71 108
e 71 110
e 71 111
e 71 114
e 72 76
e 72 77
e 72 82
e 72 84
e 72 86
e 72 89
e 72 90
e 72 91
e 72 93
e 72 97
e 72 101
e 72 103
e 72 104
e 72 109
e 72 115
e 72 116
e 72 117
e 72 118
e 73 74
e 73 75
e 73 79
e 73 80
e 73 82
e 73 84
e 73 86
e 73 89
e 73 90
e 73 92
e 73 93
e 73 98
e 73 104
e 73 105
e 73 107
e 73 110
e 73 114
e 74 77
e 74 78
e 74 82
e 74 84
e 74 87
e 74 89
e 74 91
e 74 92
e 74 93
e 74 96
e 74 97
e 74 101
e 74 105
e 74 106
e 74 110
e 75 78
e 75 79
e 75 87
e 75 89
e 75 91
e 75 96
e 75 98
e 75 103
e 75 104
e 75 105
e 75 106
e 75 108
e 75 109
e 75 112
e 75 117
e 75 118
e 76 83
e 76 87
e 76 88
e 76 96
e 76 97
e 76 103
e 76 104
e 76 105
e 76 110
e 76 111
e 76 112
e 77 79
e 77 87
e 77 98
e 77 100
e 77 107
e 77 108
e 77 113
e 77 115
e 77 116
e 77 118
e 78 80
e 78 87
e 78 88
e 78 89
e 78 90
e 78 92
e 78 94
e 78 99
e 78 100
e 78 103
e 78 115
e 78 117
e 79 81
e 79 82
e 79 88
e 79 90
e 79 92
e 79 93
e 79 95
e 79 96
e 79 98
e 79 100
e 79 101
e 79 106
e 79 107
e 79 108
e 79 112
e 79 116
e 79 117
e 80 84
e 80 91
e 80 97
e 80 99
e 80 105
e 80 108
e 80 109
e 80 114
e 80 118
e 81 83
e 81 84
e 81 87
e 81 91
e 81 92
e 81 102
e 81 104
e 81 109
e 81 111
e 81 112
e 81 114
e 81 115
e 82 84
e 82 85
e 82 88
e 82 91
e 82 92
e 82 99
e 82 101
e 82 102
e 82 107
e 82 115
e 83 84
e 83 85
e 83 86
e 83 87
e 83 92
e 83 94
e 83 95
e 83 98
e 83 102
e 83 105
e 83 106
e 83 109
e 83 110
e 83 111
e 83 113
e 84 85
e 84 87
e 84 88
e 84 89
e 84 93
e 84 96
e 84 100
e 84 101
e 84 108
e 84 111
e 84 113
e 84 115
e 84 117
e 85 92
e 85 93
e 85 96
e 85 99
e 85 100
e 85 101
e 85 105
e 85 118
e 86 87
e 86 93
e 86 101
e 86 104
e 86 107
e 86 112
e 86 116
e 87 89
e 87 91
e 87 92
e 87 93
e 87 95
e 87 98
e 87 105
e 87 109
e 87 112
e 87 114
e 87 115
e 88 90
e 88 91
e 88 93
e 88 98
e 88 99
e 88 100
e 88 102
e 88 104
e 88 105
e 88 109
e 88 114
e 88 116
e 88 117
e 88 118
e 89 94
e 89 96
e 89 101
e 89 105
e 89 109
e 89 110
e 89 111
e 89 114
e 89 115
e 89 117
e 90 93
e 90 95
e 90 98
e 90 107
e 90 110
e 91 93
e 91 96
e 91 100
e 91 102
e 91 106
e 91 108
e 91 112
e 91 113
e 91 115
e 91 117
e 92 98
e 92 101
e 92 102
e 92 103
e 92 105
e 92 107
e 92 110
e 92 112
e 92 113
e 93 94
e 93 95
e 93 98
e 93 105
e 93 109
e 93 115
e 94 96
e 94 100
e 94 104
e 94 105
e 94 110
e 94 113
e 94 115
e 94 118
e 95 100
e 95 108
e 95 109
e 95 111
e 95 112
e 95 116
e 96 97
e 96 99
e 96 105
e 96 111
e 96 112
e 96 117
e 97 98
e 97 99
e 97 108
e 97 115
e 98 101
e 98 103
e 98 104
e 98 105
e 98 106
e 98 107
e 98 109
e 98 111
e 98 117
e 99 113
e 100 109
e 100 112
e 100 113
e 100 114
e 100 115
e 100 117
e 100 118
e 101 104
e 101 105
e 101 113
e 101 116
e 102 105
e 102 107
e 102 108
e 102 109
e 102 110
e 102 118
e 103 105
e 103 108
e 103 110
e 103 111
e 103 112
e 103 113
e 104 105
e 105 110
e 105 115
e 105 118
e 106 107
e 106 108
e 106 109
e 106 114
e 106 115
e 106 116
e 106 117
e 107 109
e 107 110
e 107 112
e 107 116
e 108 109
e 108 112
e 109 111
e 109 117
e 110 116
e 111 113
e 112 114
e 112 116
e 112 117
e 113 115
e 113 116
e 114 116
